\ENCODING=ISO-8859-1
\Problem name: ilog.cplex

Minimize
 obj1: 107578 x1 + 102973 x2 + 104014 x3 + 106733 x4 + 97670 x5 + 100419 x6
       + 105315 x7 + 100427 x8 + 100790 x9 + 90713 x10 + 93340 x11 + 101760 x12
       + 98889 x13 + 104272 x14 + 103825 x15 + 93852 x16 + 108948 x17
       + 100768 x18 + 106562 x19 + 106847 x20 + 94609 x21 + 91225 x22
       + 104277 x23 + 99907 x24 + 100714 x25 + 108170 x26 + 96966 x27
       + 97212 x28 + 108624 x29 + 109976 x30 + 108344 x31 + 98914 x32
       + 105415 x33 + 109046 x34 + 104059 x35 + 101760 x36 + 95823 x37
       + 102536 x38 + 94929 x39 + 93488 x40 + 102236 x41 + 99025 x42
       + 92707 x43 + 90124 x44 + 95093 x45 + 94882 x46 + 90737 x47 + 105951 x48
       + 93716 x49 + 100044 x50 + 97352 x51 + 102192 x52 + 95913 x53
       + 104469 x54 + 95977 x55 + 92334 x56 + 93597 x57 + 93766 x58
       + 102651 x59 + 109566 x60 + 104909 x61 + 104129 x62 + 104790 x63
       + 96862 x64 + 103416 x65 + 94240 x66 + 96497 x67 + 98835 x68
       + 100215 x69 + 102888 x70 + 101879 x71 + 99300 x72 + 108160 x73
       + 101470 x74 + 104293 x75 + 99055 x76 + 94528 x77 + 104198 x78
       + 90402 x79 + 108192 x80 + 105459 x81 + 90067 x82 + 94464 x83
       + 102464 x84 + 93724 x85 + 105239 x86 + 94182 x87 + 100275 x88
       + 97940 x89 + 101528 x90 + 94597 x91 + 99762 x92 + 109486 x93
       + 91901 x94 + 109971 x95 + 98433 x96 + 107133 x97 + 109667 x98
       + 92665 x99 + 91428 x100 + 98827 x101 + 104479 x102 + 102744 x103
       + 108734 x104 + 105051 x105 + 95317 x106 + 102374 x107 + 106504 x108
       + 108852 x109 + 108283 x110 + 95014 x111 + 93176 x112 + 103888 x113
       + 95365 x114 + 91008 x115 + 107137 x116 + 93741 x117 + 99233 x118
       + 108382 x119 + 109477 x120 + 92695 x121 + 95883 x122 + 99534 x123
       + 100510 x124 + 94231 x125 + 99500 x126 + 106556 x127 + 97264 x128
       + 102303 x129 + 108135 x130 + 103484 x131 + 105735 x132 + 90770 x133
       + 106335 x134 + 100152 x135 + 92011 x136 + 99605 x137 + 99139 x138
       + 98524 x139 + 92514 x140 + 108044 x141 + 101585 x142 + 102656 x143
       + 94379 x144 + 108601 x145 + 108666 x146 + 91579 x147 + 95915 x148
       + 101863 x149 + 99166 x150 + 108605 x151 + 93956 x152 + 94369 x153
       + 104932 x154 + 95789 x155 + 108345 x156 + 94817 x157 + 90937 x158
       + 98022 x159 + 102874 x160 + 107521 x161 + 100840 x162 + 97697 x163
       + 96735 x164 + 96211 x165 + 107828 x166 + 97929 x167 + 100843 x168
       + 96195 x169 + 91102 x170 + 109973 x171 + 99359 x172 + 108334 x173
       + 94700 x174 + 98810 x175 + 108325 x176 + 94438 x177 + 97198 x178
       + 99763 x179 + 100523 x180 + 108522 x181 + 100784 x182 + 92117 x183
       + 107719 x184 + 106294 x185 + 96490 x186 + 93367 x187 + 91799 x188
       + 103911 x189 + 105876 x190 + 101837 x191 + 97817 x192 + 109502 x193
       + 108790 x194 + 94556 x195 + 106241 x196 + 98005 x197 + 92944 x198
       + 105505 x199 + 103015 x200 + 97194 x201 + 92520 x202 + 91602 x203
       + 95165 x204 + 98053 x205 + 99977 x206 + 101253 x207 + 96841 x208
       + 98759 x209 + 103819 x210 + 104210 x211 + 97103 x212 + 99390 x213
       + 97413 x214 + 109618 x215 + 105995 x216 + 97917 x217 + 106937 x218
       + 102899 x219 + 101200 x220 + 97121 x221 + 100173 x222 + 91514 x223
       + 104029 x224 + 96785 x225 + 102070 x226 + 104676 x227 + 100531 x228
       + 95860 x229 + 97879 x230 + 102711 x231 + 91192 x232 + 105213 x233
       + 90162 x234 + 98057 x235 + 100994 x236 + 93220 x237 + 92062 x238
       + 91765 x239 + 90521 x240 + 98364 x241 + 97756 x242 + 94214 x243
       + 93367 x244 + 95243 x245 + 92384 x246 + 95874 x247 + 107498 x248
       + 101069 x249 + 107064 x250 + 103489 x251 + 94053 x252 + 107584 x253
       + 106438 x254 + 101338 x255 + 98404 x256 + 101292 x257 + 96742 x258
       + 107899 x259 + 92233 x260 + 94046 x261 + 97523 x262 + 95045 x263
       + 107399 x264 + 101956 x265 + 95915 x266 + 97823 x267 + 99488 x268
       + 107245 x269 + 93049 x270 + 100334 x271 + 105106 x272 + 92171 x273
       + 90028 x274 + 105658 x275 + 95097 x276 + 109374 x277 + 104331 x278
       + 90694 x279 + 99663 x280 + 108742 x281 + 96608 x282 + 90446 x283
       + 90730 x284 + 97383 x285 + 102531 x286 + 90499 x287 + 91937 x288
       + 106283 x289 + 104693 x290 + 91297 x291 + 107285 x292 + 94940 x293
       + 105509 x294 + 103330 x295 + 95710 x296 + 103553 x297 + 93651 x298
       + 98441 x299 + 128137 x300 + 18960 x301 + 20578 x302 + 21364 x303
       + 18085 x304 + 19313 x305 + 21573 x306 + 20498 x307 + 19064 x308
       + 20734 x309 + 18674 x310 + 20773 x311 + 19645 x312 + 18795 x313
       + 18841 x314 + 19237 x315 + 20846 x316 + 18110 x317 + 18941 x318
       + 20964 x319 + 20532 x320 + 18799 x321 + 20854 x322 + 20635 x323
       + 20745 x324 + 21877 x325 + 18099 x326 + 18754 x327 + 21580 x328
       + 18056 x329 + 18565 x330 + 18118 x331 + 21964 x332 + 19061 x333
       + 21114 x334 + 18057 x335 + 20571 x336 + 20700 x337 + 21321 x338
       + 21194 x339 + 21312 x340 + 20329 x341 + 19556 x342 + 18109 x343
       + 21436 x344 + 20177 x345 + 18888 x346 + 19312 x347 + 20264 x348
       + 20185 x349 + 18946 x350 + 21276 x351 + 20905 x352 + 19603 x353
       + 18917 x354 + 20072 x355 + 18047 x356 + 21486 x357 + 18264 x358
       + 18243 x359 + 29082 x360
Subject To
 c1:   x2 - x8 - x16 + x20 + x34 - x38 - x40 - x46 + x50 + x52 + x55 + x59  = 0
 c2:   x62 - x68 - x76 + x80 + x94 - x98 - x100 - x106 + x110 + x112 + x115
       + x119  = 0
 c3:   x122 - x128 - x136 + x140 + x154 - x158 - x160 - x166 + x170 + x172
       + x175 + x179  = -1
 c4:   x182 - x188 - x196 + x200 + x214 - x218 - x220 - x226 + x230 + x232
       + x235 + x239  = 0
 c5:   x242 - x248 - x256 + x260 + x274 - x278 - x280 - x286 + x290 + x292
       + x295 + x299  = 0
 c6:   x4 + x9 - x14 + x22 - x23 + x26 + x27 - x30 + x38 - x45 - x50 - x51
        = -1
 c7:   x64 + x69 - x74 + x82 - x83 + x86 + x87 - x90 + x98 - x105 - x110 - x111
        = 0
 c8:   x124 + x129 - x134 + x142 - x143 + x146 + x147 - x150 + x158 - x165
       - x170 - x171  = 0
 c9:   x184 + x189 - x194 + x202 - x203 + x206 + x207 - x210 + x218 - x225
       - x230 - x231  = 0
 c10:  x244 + x249 - x254 + x262 - x263 + x266 + x267 - x270 + x278 - x285
       - x290 - x291  = 0
 c11:  - x7 - x13 + x14 + x16 + x29 + x33 + x37 - x43 - x48 - x52 + x60  = 0
 c12:  - x67 - x73 + x74 + x76 + x89 + x93 + x97 - x103 - x108 - x112 + x120
        = 0
 c13:  - x127 - x133 + x134 + x136 + x149 + x153 + x157 - x163 - x168 - x172
       + x180  = 0
 c14:  - x187 - x193 + x194 + x196 + x209 + x213 + x217 - x223 - x228 - x232
       + x240  = 0
 c15:  - x247 - x253 + x254 + x256 + x269 + x273 + x277 - x283 - x288 - x292
       + x300  = 0
 c16:  - x5 + x6 + x10 + x25 - x28 + x35 - x36 - x37 - x39 + x45 - x53 - x57
        = 0
 c17:  - x65 + x66 + x70 + x85 - x88 + x95 - x96 - x97 - x99 + x105 - x113
       - x117  = 0
 c18:  - x125 + x126 + x130 + x145 - x148 + x155 - x156 - x157 - x159 + x165
       - x173 - x177  = 0
 c19:  - x185 + x186 + x190 + x205 - x208 + x215 - x216 - x217 - x219 + x225
       - x233 - x237  = 0
 c20:  - x245 + x246 + x250 + x265 - x268 + x275 - x276 - x277 - x279 + x285
       - x293 - x297  = 0
 c21:  - x2 + x3 - x4 - x17 + x21 + x24 + x36 + x40 - x41 + x43 - x49 - x56
        = 0
 c22:  - x62 + x63 - x64 - x77 + x81 + x84 + x96 + x100 - x101 + x103 - x109
       - x116  = -1
 c23:  - x122 + x123 - x124 - x137 + x141 + x144 + x156 + x160 - x161 + x163
       - x169 - x176  = 1
 c24:  - x182 + x183 - x184 - x197 + x201 + x204 + x216 + x220 - x221 + x223
       - x229 - x236  = -1
 c25:  - x242 + x243 - x244 - x257 + x261 + x264 + x276 + x280 - x281 + x283
       - x289 - x296  = 0
 c26:  - x1 + x5 + x7 - x20 - x26 - x31 + x42 + x46 + x47 + x51 + x54 - x58
        = 1
 c27:  - x61 + x65 + x67 - x80 - x86 - x91 + x102 + x106 + x107 + x111 + x114
       - x118  = 0
 c28:  - x121 + x125 + x127 - x140 - x146 - x151 + x162 + x166 + x167 + x171
       + x174 - x178  = 0
 c29:  - x181 + x185 + x187 - x200 - x206 - x211 + x222 + x226 + x227 + x231
       + x234 - x238  = 0
 c30:  - x241 + x245 + x247 - x260 - x266 - x271 + x282 + x286 + x287 + x291
       + x294 - x298  = 0
 c31:  - x3 + x23 + x32 - x35 + x41 - x42 - x44 + x48 + x57 + x58 - x59 - x60
        = 0
 c32:  - x63 + x83 + x92 - x95 + x101 - x102 - x104 + x108 + x117 + x118 - x119
       - x120  = 0
 c33:  - x123 + x143 + x152 - x155 + x161 - x162 - x164 + x168 + x177 + x178
       - x179 - x180  = 0
 c34:  - x183 + x203 + x212 - x215 + x221 - x222 - x224 + x228 + x237 + x238
       - x239 - x240  = 0
 c35:  - x243 + x263 + x272 - x275 + x281 - x282 - x284 + x288 + x297 + x298
       - x299 - x300  = 0
 c36:  x1 - x6 + x8 - x12 + x13 + x17 - x18 + x19 - x21 - x27 + x28 - x29 - x47
        = 0
 c37:  x61 - x66 + x68 - x72 + x73 + x77 - x78 + x79 - x81 - x87 + x88 - x89
       - x107  = 1
 c38:  x121 - x126 + x128 - x132 + x133 + x137 - x138 + x139 - x141 - x147
       + x148 - x149 - x167  = 0
 c39:  x181 - x186 + x188 - x192 + x193 + x197 - x198 + x199 - x201 - x207
       + x208 - x209 - x227  = 0
 c40:  x241 - x246 + x248 - x252 + x253 + x257 - x258 + x259 - x261 - x267
       + x268 - x269 - x287  = 1
 c41:  - x9 - x11 + x15 + x18 - x24 - x25 - x33 + x39 - x55 + x56  = 0
 c42:  - x69 - x71 + x75 + x78 - x84 - x85 - x93 + x99 - x115 + x116  = 0
 c43:  - x129 - x131 + x135 + x138 - x144 - x145 - x153 + x159 - x175 + x176
        = 0
 c44:  - x189 - x191 + x195 + x198 - x204 - x205 - x213 + x219 - x235 + x236
        = 0
 c45:  - x249 - x251 + x255 + x258 - x264 - x265 - x273 + x279 - x295 + x296
        = -1
 c46:  - x10 + x11 + x12 - x15 - x19 - x22 + x30 + x31 - x32 - x34 + x44 + x49
       + x53 - x54  = 0
 c47:  - x70 + x71 + x72 - x75 - x79 - x82 + x90 + x91 - x92 - x94 + x104
       + x109 + x113 - x114  = 0
 c48:  - x130 + x131 + x132 - x135 - x139 - x142 + x150 + x151 - x152 - x154
       + x164 + x169 + x173 - x174  = 0
 c49:  - x190 + x191 + x192 - x195 - x199 - x202 + x210 + x211 - x212 - x214
       + x224 + x229 + x233 - x234  = 1
 c50:  - x250 + x251 + x252 - x255 - x259 - x262 + x270 + x271 - x272 - x274
       + x284 + x289 + x293 - x294  = 0
 c51:  4 x1 + 4 x61 + 4 x121 + 4 x181 + 4 x241 - 2 x301 <= 0
 c52:  4 x2 + 4 x62 + 4 x122 + 4 x182 + 4 x242 - 2 x302 <= 0
 c53:  4 x3 + 4 x63 + 4 x123 + 4 x183 + 4 x243 - 2 x303 <= 0
 c54:  4 x4 + 4 x64 + 4 x124 + 4 x184 + 4 x244 - 2 x304 <= 0
 c55:  4 x5 + 4 x65 + 4 x125 + 4 x185 + 4 x245 - 2 x305 <= 0
 c56:  4 x6 + 4 x66 + 4 x126 + 4 x186 + 4 x246 - 2 x306 <= 0
 c57:  4 x7 + 4 x67 + 4 x127 + 4 x187 + 4 x247 - 2 x307 <= 0
 c58:  4 x8 + 4 x68 + 4 x128 + 4 x188 + 4 x248 - 2 x308 <= 0
 c59:  4 x9 + 4 x69 + 4 x129 + 4 x189 + 4 x249 - 2 x309 <= 0
 c60:  4 x10 + 4 x70 + 4 x130 + 4 x190 + 4 x250 - 2 x310 <= 0
 c61:  4 x11 + 4 x71 + 4 x131 + 4 x191 + 4 x251 - 2 x311 <= 0
 c62:  4 x12 + 4 x72 + 4 x132 + 4 x192 + 4 x252 - 2 x312 <= 0
 c63:  4 x13 + 4 x73 + 4 x133 + 4 x193 + 4 x253 - 2 x313 <= 0
 c64:  4 x14 + 4 x74 + 4 x134 + 4 x194 + 4 x254 - 2 x314 <= 0
 c65:  4 x15 + 4 x75 + 4 x135 + 4 x195 + 4 x255 - 2 x315 <= 0
 c66:  4 x16 + 4 x76 + 4 x136 + 4 x196 + 4 x256 - 2 x316 <= 0
 c67:  4 x17 + 4 x77 + 4 x137 + 4 x197 + 4 x257 - 2 x317 <= 0
 c68:  4 x18 + 4 x78 + 4 x138 + 4 x198 + 4 x258 - 2 x318 <= 0
 c69:  4 x19 + 4 x79 + 4 x139 + 4 x199 + 4 x259 - 2 x319 <= 0
 c70:  4 x20 + 4 x80 + 4 x140 + 4 x200 + 4 x260 - 2 x320 <= 0
 c71:  4 x21 + 4 x81 + 4 x141 + 4 x201 + 4 x261 - 2 x321 <= 0
 c72:  4 x22 + 4 x82 + 4 x142 + 4 x202 + 4 x262 - 2 x322 <= 0
 c73:  4 x23 + 4 x83 + 4 x143 + 4 x203 + 4 x263 - 2 x323 <= 0
 c74:  4 x24 + 4 x84 + 4 x144 + 4 x204 + 4 x264 - 2 x324 <= 0
 c75:  4 x25 + 4 x85 + 4 x145 + 4 x205 + 4 x265 - 2 x325 <= 0
 c76:  4 x26 + 4 x86 + 4 x146 + 4 x206 + 4 x266 - 2 x326 <= 0
 c77:  4 x27 + 4 x87 + 4 x147 + 4 x207 + 4 x267 - 2 x327 <= 0
 c78:  4 x28 + 4 x88 + 4 x148 + 4 x208 + 4 x268 - 2 x328 <= 0
 c79:  4 x29 + 4 x89 + 4 x149 + 4 x209 + 4 x269 - 2 x329 <= 0
 c80:  4 x30 + 4 x90 + 4 x150 + 4 x210 + 4 x270 - 2 x330 <= 0
 c81:  4 x31 + 4 x91 + 4 x151 + 4 x211 + 4 x271 - 2 x331 <= 0
 c82:  4 x32 + 4 x92 + 4 x152 + 4 x212 + 4 x272 - 2 x332 <= 0
 c83:  4 x33 + 4 x93 + 4 x153 + 4 x213 + 4 x273 - 2 x333 <= 0
 c84:  4 x34 + 4 x94 + 4 x154 + 4 x214 + 4 x274 - 2 x334 <= 0
 c85:  4 x35 + 4 x95 + 4 x155 + 4 x215 + 4 x275 - 2 x335 <= 0
 c86:  4 x36 + 4 x96 + 4 x156 + 4 x216 + 4 x276 - 2 x336 <= 0
 c87:  4 x37 + 4 x97 + 4 x157 + 4 x217 + 4 x277 - 2 x337 <= 0
 c88:  4 x38 + 4 x98 + 4 x158 + 4 x218 + 4 x278 - 2 x338 <= 0
 c89:  4 x39 + 4 x99 + 4 x159 + 4 x219 + 4 x279 - 2 x339 <= 0
 c90:  4 x40 + 4 x100 + 4 x160 + 4 x220 + 4 x280 - 2 x340 <= 0
 c91:  4 x41 + 4 x101 + 4 x161 + 4 x221 + 4 x281 - 2 x341 <= 0
 c92:  4 x42 + 4 x102 + 4 x162 + 4 x222 + 4 x282 - 2 x342 <= 0
 c93:  4 x43 + 4 x103 + 4 x163 + 4 x223 + 4 x283 - 2 x343 <= 0
 c94:  4 x44 + 4 x104 + 4 x164 + 4 x224 + 4 x284 - 2 x344 <= 0
 c95:  4 x45 + 4 x105 + 4 x165 + 4 x225 + 4 x285 - 2 x345 <= 0
 c96:  4 x46 + 4 x106 + 4 x166 + 4 x226 + 4 x286 - 2 x346 <= 0
 c97:  4 x47 + 4 x107 + 4 x167 + 4 x227 + 4 x287 - 2 x347 <= 0
 c98:  4 x48 + 4 x108 + 4 x168 + 4 x228 + 4 x288 - 2 x348 <= 0
 c99:  4 x49 + 4 x109 + 4 x169 + 4 x229 + 4 x289 - 2 x349 <= 0
 c100: 4 x50 + 4 x110 + 4 x170 + 4 x230 + 4 x290 - 2 x350 <= 0
 c101: 4 x51 + 4 x111 + 4 x171 + 4 x231 + 4 x291 - 2 x351 <= 0
 c102: 4 x52 + 4 x112 + 4 x172 + 4 x232 + 4 x292 - 2 x352 <= 0
 c103: 4 x53 + 4 x113 + 4 x173 + 4 x233 + 4 x293 - 2 x353 <= 0
 c104: 4 x54 + 4 x114 + 4 x174 + 4 x234 + 4 x294 - 2 x354 <= 0
 c105: 4 x55 + 4 x115 + 4 x175 + 4 x235 + 4 x295 - 2 x355 <= 0
 c106: 4 x56 + 4 x116 + 4 x176 + 4 x236 + 4 x296 - 2 x356 <= 0
 c107: 4 x57 + 4 x117 + 4 x177 + 4 x237 + 4 x297 - 2 x357 <= 0
 c108: 4 x58 + 4 x118 + 4 x178 + 4 x238 + 4 x298 - 2 x358 <= 0
 c109: 4 x59 + 4 x119 + 4 x179 + 4 x239 + 4 x299 - 2 x359 <= 0
 c110: 4 x60 + 4 x120 + 4 x180 + 4 x240 + 4 x300 - 2 x360 <= 0
Bounds
 0 <= x1 <= 1
 0 <= x2 <= 1
 0 <= x3 <= 1
 0 <= x4 <= 1
 0 <= x5 <= 1
 0 <= x6 <= 1
 0 <= x7 <= 1
 0 <= x8 <= 1
 0 <= x9 <= 1
 0 <= x10 <= 1
 0 <= x11 <= 1
 0 <= x12 <= 1
 0 <= x13 <= 1
 0 <= x14 <= 1
 0 <= x15 <= 1
 0 <= x16 <= 1
 0 <= x17 <= 1
 0 <= x18 <= 1
 0 <= x19 <= 1
 0 <= x20 <= 1
 0 <= x21 <= 1
 0 <= x22 <= 1
 0 <= x23 <= 1
 0 <= x24 <= 1
 0 <= x25 <= 1
 0 <= x26 <= 1
 0 <= x27 <= 1
 0 <= x28 <= 1
 0 <= x29 <= 1
 0 <= x30 <= 1
 0 <= x31 <= 1
 0 <= x32 <= 1
 0 <= x33 <= 1
 0 <= x34 <= 1
 0 <= x35 <= 1
 0 <= x36 <= 1
 0 <= x37 <= 1
 0 <= x38 <= 1
 0 <= x39 <= 1
 0 <= x40 <= 1
 0 <= x41 <= 1
 0 <= x42 <= 1
 0 <= x43 <= 1
 0 <= x44 <= 1
 0 <= x45 <= 1
 0 <= x46 <= 1
 0 <= x47 <= 1
 0 <= x48 <= 1
 0 <= x49 <= 1
 0 <= x50 <= 1
 0 <= x51 <= 1
 0 <= x52 <= 1
 0 <= x53 <= 1
 0 <= x54 <= 1
 0 <= x55 <= 1
 0 <= x56 <= 1
 0 <= x57 <= 1
 0 <= x58 <= 1
 0 <= x59 <= 1
 0 <= x60 <= 1
 0 <= x61 <= 1
 0 <= x62 <= 1
 0 <= x63 <= 1
 0 <= x64 <= 1
 0 <= x65 <= 1
 0 <= x66 <= 1
 0 <= x67 <= 1
 0 <= x68 <= 1
 0 <= x69 <= 1
 0 <= x70 <= 1
 0 <= x71 <= 1
 0 <= x72 <= 1
 0 <= x73 <= 1
 0 <= x74 <= 1
 0 <= x75 <= 1
 0 <= x76 <= 1
 0 <= x77 <= 1
 0 <= x78 <= 1
 0 <= x79 <= 1
 0 <= x80 <= 1
 0 <= x81 <= 1
 0 <= x82 <= 1
 0 <= x83 <= 1
 0 <= x84 <= 1
 0 <= x85 <= 1
 0 <= x86 <= 1
 0 <= x87 <= 1
 0 <= x88 <= 1
 0 <= x89 <= 1
 0 <= x90 <= 1
 0 <= x91 <= 1
 0 <= x92 <= 1
 0 <= x93 <= 1
 0 <= x94 <= 1
 0 <= x95 <= 1
 0 <= x96 <= 1
 0 <= x97 <= 1
 0 <= x98 <= 1
 0 <= x99 <= 1
 0 <= x100 <= 1
 0 <= x101 <= 1
 0 <= x102 <= 1
 0 <= x103 <= 1
 0 <= x104 <= 1
 0 <= x105 <= 1
 0 <= x106 <= 1
 0 <= x107 <= 1
 0 <= x108 <= 1
 0 <= x109 <= 1
 0 <= x110 <= 1
 0 <= x111 <= 1
 0 <= x112 <= 1
 0 <= x113 <= 1
 0 <= x114 <= 1
 0 <= x115 <= 1
 0 <= x116 <= 1
 0 <= x117 <= 1
 0 <= x118 <= 1
 0 <= x119 <= 1
 0 <= x120 <= 1
 0 <= x121 <= 1
 0 <= x122 <= 1
 0 <= x123 <= 1
 0 <= x124 <= 1
 0 <= x125 <= 1
 0 <= x126 <= 1
 0 <= x127 <= 1
 0 <= x128 <= 1
 0 <= x129 <= 1
 0 <= x130 <= 1
 0 <= x131 <= 1
 0 <= x132 <= 1
 0 <= x133 <= 1
 0 <= x134 <= 1
 0 <= x135 <= 1
 0 <= x136 <= 1
 0 <= x137 <= 1
 0 <= x138 <= 1
 0 <= x139 <= 1
 0 <= x140 <= 1
 0 <= x141 <= 1
 0 <= x142 <= 1
 0 <= x143 <= 1
 0 <= x144 <= 1
 0 <= x145 <= 1
 0 <= x146 <= 1
 0 <= x147 <= 1
 0 <= x148 <= 1
 0 <= x149 <= 1
 0 <= x150 <= 1
 0 <= x151 <= 1
 0 <= x152 <= 1
 0 <= x153 <= 1
 0 <= x154 <= 1
 0 <= x155 <= 1
 0 <= x156 <= 1
 0 <= x157 <= 1
 0 <= x158 <= 1
 0 <= x159 <= 1
 0 <= x160 <= 1
 0 <= x161 <= 1
 0 <= x162 <= 1
 0 <= x163 <= 1
 0 <= x164 <= 1
 0 <= x165 <= 1
 0 <= x166 <= 1
 0 <= x167 <= 1
 0 <= x168 <= 1
 0 <= x169 <= 1
 0 <= x170 <= 1
 0 <= x171 <= 1
 0 <= x172 <= 1
 0 <= x173 <= 1
 0 <= x174 <= 1
 0 <= x175 <= 1
 0 <= x176 <= 1
 0 <= x177 <= 1
 0 <= x178 <= 1
 0 <= x179 <= 1
 0 <= x180 <= 1
 0 <= x181 <= 1
 0 <= x182 <= 1
 0 <= x183 <= 1
 0 <= x184 <= 1
 0 <= x185 <= 1
 0 <= x186 <= 1
 0 <= x187 <= 1
 0 <= x188 <= 1
 0 <= x189 <= 1
 0 <= x190 <= 1
 0 <= x191 <= 1
 0 <= x192 <= 1
 0 <= x193 <= 1
 0 <= x194 <= 1
 0 <= x195 <= 1
 0 <= x196 <= 1
 0 <= x197 <= 1
 0 <= x198 <= 1
 0 <= x199 <= 1
 0 <= x200 <= 1
 0 <= x201 <= 1
 0 <= x202 <= 1
 0 <= x203 <= 1
 0 <= x204 <= 1
 0 <= x205 <= 1
 0 <= x206 <= 1
 0 <= x207 <= 1
 0 <= x208 <= 1
 0 <= x209 <= 1
 0 <= x210 <= 1
 0 <= x211 <= 1
 0 <= x212 <= 1
 0 <= x213 <= 1
 0 <= x214 <= 1
 0 <= x215 <= 1
 0 <= x216 <= 1
 0 <= x217 <= 1
 0 <= x218 <= 1
 0 <= x219 <= 1
 0 <= x220 <= 1
 0 <= x221 <= 1
 0 <= x222 <= 1
 0 <= x223 <= 1
 0 <= x224 <= 1
 0 <= x225 <= 1
 0 <= x226 <= 1
 0 <= x227 <= 1
 0 <= x228 <= 1
 0 <= x229 <= 1
 0 <= x230 <= 1
 0 <= x231 <= 1
 0 <= x232 <= 1
 0 <= x233 <= 1
 0 <= x234 <= 1
 0 <= x235 <= 1
 0 <= x236 <= 1
 0 <= x237 <= 1
 0 <= x238 <= 1
 0 <= x239 <= 1
 0 <= x240 <= 1
 0 <= x241 <= 1
 0 <= x242 <= 1
 0 <= x243 <= 1
 0 <= x244 <= 1
 0 <= x245 <= 1
 0 <= x246 <= 1
 0 <= x247 <= 1
 0 <= x248 <= 1
 0 <= x249 <= 1
 0 <= x250 <= 1
 0 <= x251 <= 1
 0 <= x252 <= 1
 0 <= x253 <= 1
 0 <= x254 <= 1
 0 <= x255 <= 1
 0 <= x256 <= 1
 0 <= x257 <= 1
 0 <= x258 <= 1
 0 <= x259 <= 1
 0 <= x260 <= 1
 0 <= x261 <= 1
 0 <= x262 <= 1
 0 <= x263 <= 1
 0 <= x264 <= 1
 0 <= x265 <= 1
 0 <= x266 <= 1
 0 <= x267 <= 1
 0 <= x268 <= 1
 0 <= x269 <= 1
 0 <= x270 <= 1
 0 <= x271 <= 1
 0 <= x272 <= 1
 0 <= x273 <= 1
 0 <= x274 <= 1
 0 <= x275 <= 1
 0 <= x276 <= 1
 0 <= x277 <= 1
 0 <= x278 <= 1
 0 <= x279 <= 1
 0 <= x280 <= 1
 0 <= x281 <= 1
 0 <= x282 <= 1
 0 <= x283 <= 1
 0 <= x284 <= 1
 0 <= x285 <= 1
 0 <= x286 <= 1
 0 <= x287 <= 1
 0 <= x288 <= 1
 0 <= x289 <= 1
 0 <= x290 <= 1
 0 <= x291 <= 1
 0 <= x292 <= 1
 0 <= x293 <= 1
 0 <= x294 <= 1
 0 <= x295 <= 1
 0 <= x296 <= 1
 0 <= x297 <= 1
 0 <= x298 <= 1
 0 <= x299 <= 1
 0 <= x300 <= 1
 0 <= x301 <= 1
 0 <= x302 <= 1
 0 <= x303 <= 1
 0 <= x304 <= 1
 0 <= x305 <= 1
 0 <= x306 <= 1
 0 <= x307 <= 1
 0 <= x308 <= 1
 0 <= x309 <= 1
 0 <= x310 <= 1
 0 <= x311 <= 1
 0 <= x312 <= 1
 0 <= x313 <= 1
 0 <= x314 <= 1
 0 <= x315 <= 1
 0 <= x316 <= 1
 0 <= x317 <= 1
 0 <= x318 <= 1
 0 <= x319 <= 1
 0 <= x320 <= 1
 0 <= x321 <= 1
 0 <= x322 <= 1
 0 <= x323 <= 1
 0 <= x324 <= 1
 0 <= x325 <= 1
 0 <= x326 <= 1
 0 <= x327 <= 1
 0 <= x328 <= 1
 0 <= x329 <= 1
 0 <= x330 <= 1
 0 <= x331 <= 1
 0 <= x332 <= 1
 0 <= x333 <= 1
 0 <= x334 <= 1
 0 <= x335 <= 1
 0 <= x336 <= 1
 0 <= x337 <= 1
 0 <= x338 <= 1
 0 <= x339 <= 1
 0 <= x340 <= 1
 0 <= x341 <= 1
 0 <= x342 <= 1
 0 <= x343 <= 1
 0 <= x344 <= 1
 0 <= x345 <= 1
 0 <= x346 <= 1
 0 <= x347 <= 1
 0 <= x348 <= 1
 0 <= x349 <= 1
 0 <= x350 <= 1
 0 <= x351 <= 1
 0 <= x352 <= 1
 0 <= x353 <= 1
 0 <= x354 <= 1
 0 <= x355 <= 1
 0 <= x356 <= 1
 0 <= x357 <= 1
 0 <= x358 <= 1
 0 <= x359 <= 1
 0 <= x360 <= 1
Binaries
 x301  x302  x303  x304  x305  x306  x307  x308  x309  x310  x311  x312  x313 
 x314  x315  x316  x317  x318  x319  x320  x321  x322  x323  x324  x325  x326 
 x327  x328  x329  x330  x331  x332  x333  x334  x335  x336  x337  x338  x339 
 x340  x341  x342  x343  x344  x345  x346  x347  x348  x349  x350  x351  x352 
 x353  x354  x355  x356  x357  x358  x359  x360 
End
